681691
200,198,10,191,152,114,29,195,193,84,95,79,167,85,188,124,123,25,61,182,148,131,173,181,136,206,218,119,86,70,126,209,73,113,160,42,98,51,122,177,226,69,23,159,199,31,178,163,127,147,43,39,207,67,49,118,71,140,74,157,83,135,162,72,32,63,1,7,36,229,133,155,112,27,169,40,81,130,102,62,55,78,87,35,94,108,50,151,28,37,192,34,215,75,205,179,107,196,161,184,116,89,22,26,91,96,166,101,9,68,6,203,38,224,33,129,153,217,21,4,142,170,90,150,171,186,109,228,88,146,12,187,103,180,121,106,219,66,190,99,202,175,54,56,18,92,53,100,216,105,24,141,128,41,222,77,158,82,2,115,149,132,80,52,221,59,213,93,168,172,204,230,104,212,45,58,139,57,76,174,154,65,164,11,143,197,214,46,125,227,19,134,111,48,225,47,17,223,176,13,194,97,30,220,64,44,5,156,211,145,144,117,20,183,210,16,189,185,208,3,138,60,137,15,8,120,165,14,110,201,200